\Problem name: 

Minimize
OBJROW: 90 x_l + 180 x_g + 25 x_s
Subject To
constr(0):  x_l + x_g + x_s = 10
constr(1):  0.00500 x_l + 0.90000 x_g + 0.09000 x_s >= -0
constr(2):  0.00500 x_l + 0.90000 x_g + 0.09000 x_s <= 0.95000
constr(3):  0.14000 x_l + 0.27000 x_s >= 1.90000
constr(4):  0.14000 x_l + 0.27000 x_s <= 2
Bounds
End
